(set-info :smt-lib-version 2.6)
(set-logic QF_LIA)
(set-info :source |http://www.nec-labs.com/~fsoft/bench.html 
 The following changes have been made: 
 The logic is changed to QF_LIA. 
 The category is set as industrial. 
 The status (except 'large' cases) is assigned according to the 'outfile' on http://www.nec-labs.com/~fsoft/bench.html.  |)
(set-info :category "industrial")
(set-info :status sat)
(declare-fun i194 () Int)
(declare-fun i201 () Int)
(declare-fun i224 () Int)
(declare-fun i214 () Int)
(declare-fun i245 () Int)
(declare-fun i270 () Int)
(declare-fun i300 () Int)
(declare-fun i342 () Int)
(declare-fun i399 () Int)
(declare-fun i481 () Int)
(declare-fun i527 () Int)
(declare-fun i578 () Int)
(declare-fun i641 () Int)
(declare-fun i762 () Int)
(declare-fun i890 () Int)
(declare-fun i826 () Int)
(declare-fun i1022 () Int)
(declare-fun i960 () Int)
(declare-fun i1154 () Int)
(declare-fun i1091 () Int)
(declare-fun i1291 () Int)
(declare-fun i1228 () Int)
(declare-fun i1362 () Int)
(declare-fun i1430 () Int)
(declare-fun i1503 () Int)
(assert (let ((?v_3 (+ 0 0))) (let ((?v_73 (= i399 ?v_3)) (?v_149 (= i578 ?v_3))) (let ((?v_151 (ite ?v_149 1 2147483647)) (?v_346 (= i1154 ?v_3))) (let ((?v_348 (ite ?v_346 1 2147483647)) (?v_440 (= i1430 ?v_3))) (let ((?v_442 (ite ?v_440 1 2147483647)) (?v_74 (ite ?v_73 1 2147483647)) (?v_0 (ite (<= i194 ?v_3) 4 12)) (?v_42 (+ 12 0))) (let ((?v_2 (= ?v_0 ?v_42))) (let ((?v_51 (ite (not ?v_2) 0 i201)) (?v_1 (ite ?v_2 14 ?v_0))) (let ((?v_4 (= ?v_51 ?v_3)) (?v_49 (+ 14 0))) (let ((?v_5 (ite (not (= ?v_1 ?v_49)) ?v_1 (ite (not ?v_4) 15 (ite ?v_4 16 ?v_1)))) (?v_68 (+ 16 0))) (let ((?v_13 (= ?v_5 ?v_68)) (?v_66 (+ 15 0))) (let ((?v_12 (= ?v_5 ?v_66))) (let ((?v_136 (ite ?v_12 i214 (ite (not ?v_13) 0 i214))) (?v_6 (ite ?v_12 17 (ite ?v_13 17 ?v_5))) (?v_78 (+ 17 0))) (let ((?v_8 (= ?v_6 ?v_78))) (let ((?v_93 (ite (not ?v_8) 0 i224)) (?v_7 (ite ?v_8 19 ?v_6))) (let ((?v_9 (= ?v_93 ?v_3)) (?v_91 (+ 19 0))) (let ((?v_10 (ite (not (= ?v_7 ?v_91)) ?v_7 (ite (not ?v_9) 20 (ite ?v_9 21 ?v_7)))) (?v_110 (+ 21 0))) (let ((?v_15 (= ?v_10 ?v_110)) (?v_108 (+ 20 0))) (let ((?v_14 (= ?v_10 ?v_108))) (let ((?v_139 (ite ?v_14 i245 (ite (not ?v_15) 0 i245))) (?v_11 (ite ?v_14 23 (ite ?v_15 23 ?v_10)))) (let ((?v_16 (<= ?v_136 (+ ?v_139 0))) (?v_133 (+ 23 0))) (let ((?v_17 (ite (not (= ?v_11 ?v_133)) ?v_11 (ite (not ?v_16) 24 (ite ?v_16 56 ?v_11)))) (?v_31 (+ 56 0))) (let ((?v_21 (= ?v_17 ?v_31)) (?v_171 (+ 24 0))) (let ((?v_18 (= ?v_17 ?v_171))) (let ((?v_191 (ite (not ?v_18) 0 i270)) (?v_35 (ite (not ?v_21) 0 i270))) (let ((?v_19 (= ?v_191 ?v_3)) (?v_22 (= ?v_35 ?v_3)) (?v_20 (ite ?v_18 26 (ite ?v_21 58 ?v_17))) (?v_33 (+ 58 0)) (?v_189 (+ 26 0))) (let ((?v_23 (ite (= ?v_20 ?v_189) (ite (not ?v_19) 27 (ite ?v_19 28 ?v_20)) (ite (not (= ?v_20 ?v_33)) ?v_20 (ite (not ?v_22) 59 (ite ?v_22 60 ?v_20))))) (?v_45 (+ 60 0))) (let ((?v_29 (= ?v_23 ?v_45)) (?v_44 (+ 59 0))) (let ((?v_28 (= ?v_23 ?v_44)) (?v_208 (+ 28 0))) (let ((?v_25 (= ?v_23 ?v_208)) (?v_206 (+ 27 0))) (let ((?v_24 (= ?v_23 ?v_206))) (let ((?v_229 (ite ?v_24 i300 (ite (not ?v_25) 0 i300))) (?v_57 (ite ?v_28 i300 (ite (not ?v_29) 0 i300)))) (let ((?v_26 (<= ?v_229 ?v_3)) (?v_30 (<= ?v_57 ?v_3)) (?v_27 (ite ?v_24 30 (ite ?v_25 30 (ite ?v_28 62 (ite ?v_29 62 ?v_23))))) (?v_54 (+ 62 0)) (?v_226 (+ 30 0))) (let ((?v_32 (ite (= ?v_27 ?v_226) (ite ?v_26 56 (ite (not ?v_26) 46 ?v_27)) (ite (not (= ?v_27 ?v_54)) ?v_27 (ite (not ?v_30) 63 (ite ?v_30 69 ?v_27))))) (?v_253 (+ 46 0))) (let ((?v_41 (= ?v_32 ?v_253)) (?v_70 (+ 69 0))) (let ((?v_40 (= ?v_32 ?v_70)) (?v_69 (+ 63 0))) (let ((?v_38 (= ?v_32 ?v_69)) (?v_34 (= ?v_32 ?v_31))) (let ((?v_194 (ite (not ?v_34) ?v_35 i342)) (?v_81 (ite (not ?v_38) 0 i342))) (let ((?v_36 (= ?v_194 ?v_3)) (?v_39 (= ?v_81 ?v_3)) (?v_47 (ite ?v_40 9 (ite (not ?v_41) 0 i342))) (?v_37 (ite ?v_34 58 (ite ?v_38 65 (ite ?v_40 74 (ite ?v_41 48 ?v_32))))) (?v_280 (+ 48 0)) (?v_83 (+ 74 0))) (let ((?v_46 (= ?v_37 ?v_83)) (?v_79 (+ 65 0))) (let ((?v_64 (ite (not ?v_46) 0 ?v_47))) (let ((?v_65 (<= 9 (+ ?v_64 0))) (?v_100 (+ 264 0))) (let ((?v_48 (<= ?v_64 ?v_100)) (?v_43 (ite (= ?v_37 ?v_33) (ite (not ?v_36) 59 (ite ?v_36 60 ?v_37)) (ite (= ?v_37 ?v_79) (ite (not ?v_39) 66 (ite ?v_39 67 ?v_37)) (ite ?v_46 97 (ite (not (= ?v_37 ?v_280)) ?v_37 (ite (not (<= ?v_47 ?v_3)) 12 ?v_37)))))) (?v_97 (+ 97 0)) (?v_96 (+ 67 0))) (let ((?v_60 (= ?v_43 ?v_96)) (?v_95 (+ 66 0))) (let ((?v_59 (= ?v_43 ?v_95)) (?v_56 (= ?v_43 ?v_45)) (?v_55 (= ?v_43 ?v_44)) (?v_50 (= ?v_43 ?v_42))) (let ((?v_312 (ite (not ?v_50) ?v_51 i399)) (?v_61 (not ?v_60))) (let ((?v_52 (= ?v_312 ?v_3)) (?v_234 (ite ?v_55 i399 (ite (not ?v_56) ?v_57 i399))) (?v_75 (ite ?v_59 i399 (ite ?v_61 0 i399))) (?v_150 (ite ?v_59 ?v_74 (ite ?v_61 0 ?v_74)))) (let ((?v_58 (<= ?v_234 ?v_3)) (?v_76 (<= ?v_150 (+ ?v_75 0))) (?v_53 (ite ?v_50 14 (ite ?v_55 62 (ite ?v_56 62 (ite ?v_59 93 (ite ?v_60 93 (ite (not (= ?v_43 ?v_97)) ?v_43 (ite (not ?v_48) 98 (ite ?v_48 95 ?v_43))))))))) (?v_71 (+ 95 0)) (?v_123 (+ 98 0)) (?v_116 (+ 93 0)) (?v_72 (not ?v_65)) (?v_87 (+ 76 0)) (?v_86 (+ 96 0)) (?v_84 (+ 91 0)) (?v_148 (+ 94 0)) (?v_159 (+ 11 0)) (?v_158 (+ 10 0)) (?v_157 (+ 9 0)) (?v_156 (+ 8 0))) (let ((?v_85 (not ?v_76)) (?v_104 (+ 82 0)) (?v_103 (+ 77 0)) (?v_89 (+ 92 0)) (?v_126 (+ 101 0)) (?v_166 (+ 99 0)) (?v_165 (+ 102 0)) (?v_181 (+ 32 0)) (?v_186 (+ 79 0)) (?v_185 (+ 100 0)) (?v_62 (ite ?v_73 0 (- 2147483647)))) (let ((?v_120 (ite ?v_59 ?v_62 (ite ?v_61 0 ?v_62)))) (let ((?v_63 (<= ?v_75 (+ ?v_120 0)))) (let ((?v_67 (ite (= ?v_53 ?v_49) (ite (not ?v_52) 15 (ite ?v_52 16 ?v_53)) (ite (= ?v_53 ?v_54) (ite (not ?v_58) 63 (ite ?v_58 69 ?v_53)) (ite (= ?v_53 ?v_116) (ite (not ?v_63) 94 (ite ?v_63 91 ?v_53)) (ite (= ?v_53 ?v_123) 95 (ite (not (= ?v_53 ?v_71)) ?v_53 (ite ?v_72 96 (ite ?v_65 76 ?v_53))))))))) (let ((?v_134 (= ?v_67 ?v_66)) (?v_135 (= ?v_67 ?v_68)) (?v_80 (= ?v_67 ?v_69)) (?v_99 (= ?v_67 ?v_70))) (let ((?v_77 (ite ?v_134 17 (ite ?v_135 17 (ite ?v_80 65 (ite ?v_99 74 (ite (= ?v_67 ?v_71) (ite ?v_72 96 (ite ?v_65 76 ?v_67)) (ite (= ?v_67 ?v_148) 91 (ite (= ?v_67 ?v_84) (ite ?v_85 92 (ite ?v_76 69 ?v_67)) (ite (= ?v_67 ?v_86) 76 (ite (= ?v_67 ?v_87) 77 ?v_67))))))))))) (let ((?v_88 (= ?v_77 ?v_89)) (?v_92 (= ?v_77 ?v_78)) (?v_112 (= ?v_77 ?v_70)) (?v_275 (ite (not ?v_80) ?v_81 i481))) (let ((?v_82 (= ?v_275 ?v_3)) (?v_98 (= ?v_77 ?v_83)) (?v_105 (= ?v_77 ?v_103)) (?v_113 (= ?v_77 ?v_104))) (let ((?v_90 (ite ?v_92 19 (ite ?v_112 74 (ite (= ?v_77 ?v_79) (ite (not ?v_82) 66 (ite ?v_82 67 ?v_77)) (ite ?v_98 97 (ite (= ?v_77 ?v_84) (ite ?v_85 92 (ite ?v_76 69 ?v_77)) (ite (= ?v_77 ?v_86) 76 (ite (= ?v_77 ?v_87) 77 (ite ?v_88 69 (ite ?v_105 101 (ite ?v_113 74 ?v_77)))))))))))) (let ((?v_102 (= ?v_90 ?v_89)) (?v_384 (ite (not ?v_92) ?v_93 i527))) (let ((?v_94 (= ?v_384 ?v_3)) (?v_143 (= ?v_90 ?v_70)) (?v_111 (= ?v_90 ?v_83)) (?v_117 (= ?v_90 ?v_95)) (?v_118 (= ?v_90 ?v_96)) (?v_106 (ite ?v_99 9 ?v_47))) (let ((?v_114 (ite (not ?v_98) ?v_64 ?v_106))) (let ((?v_101 (<= ?v_114 ?v_100)) (?v_127 (= ?v_90 ?v_103)) (?v_144 (= ?v_90 ?v_104)) (?v_129 (ite (not ?v_105) 0 ?v_106))) (let ((?v_107 (<= ?v_129 ?v_100))) (let ((?v_109 (ite (= ?v_90 ?v_91) (ite (not ?v_94) 20 (ite ?v_94 21 ?v_90)) (ite ?v_143 74 (ite ?v_111 97 (ite ?v_117 93 (ite ?v_118 93 (ite (= ?v_90 ?v_97) (ite (not ?v_101) 98 (ite ?v_101 95 ?v_90)) (ite (= ?v_90 ?v_87) 77 (ite ?v_102 69 (ite ?v_127 101 (ite ?v_144 74 (ite (not (= ?v_90 ?v_126)) ?v_90 (ite (not ?v_107) 102 (ite ?v_107 99 ?v_90))))))))))))))) (let ((?v_137 (= ?v_109 ?v_108)) (?v_138 (= ?v_109 ?v_110)) (?v_173 (= ?v_109 ?v_70)) (?v_142 (= ?v_109 ?v_83)) (?v_155 (not ?v_113)) (?v_119 (not ?v_118))) (let ((?v_152 (ite ?v_117 i578 (ite ?v_119 ?v_75 i578))) (?v_121 (ite ?v_149 0 (- 2147483647)))) (let ((?v_325 (ite ?v_117 ?v_121 (ite ?v_119 ?v_120 ?v_121)))) (let ((?v_122 (<= ?v_152 (+ ?v_325 0))) (?v_162 (= ?v_109 ?v_103)) (?v_174 (= ?v_109 ?v_104)) (?v_428 (ite ?v_134 i481 (ite (not ?v_135) ?v_136 i481))) (?v_431 (ite ?v_137 i641 (ite (not ?v_138) ?v_139 i641)))) (let ((?v_140 (<= ?v_428 (+ ?v_431 0))) (?v_154 (not ?v_144)) (?v_347 (ite ?v_117 ?v_151 (ite ?v_119 ?v_150 ?v_151)))) (let ((?v_153 (<= ?v_347 (+ ?v_152 0)))) (let ((?v_178 (not ?v_153)) (?v_160 (ite ?v_112 0 (ite ?v_155 0 (ite (= ?v_106 ?v_156) 0 (ite (= ?v_106 ?v_157) 0 (ite (= ?v_106 ?v_158) 0 (ite (= ?v_106 ?v_159) 0 i527))))))) (?v_179 (not ?v_174)) (?v_326 (ite ?v_346 0 (- 2147483647))) (?v_412 (ite ?v_440 0 (- 2147483647))) (?v_128 (ite ?v_112 9 (ite ?v_155 ?v_106 (+ 0 1 ?v_106))))) (let ((?v_124 (ite ?v_111 ?v_128 ?v_114))) (let ((?v_115 (<= ?v_124 ?v_100)) (?v_125 (<= 9 (+ ?v_124 0))) (?v_131 (ite ?v_127 ?v_128 ?v_129))) (let ((?v_130 (<= ?v_131 ?v_100)) (?v_132 (<= 9 (+ ?v_131 0)))) (let ((?v_141 (ite ?v_137 23 (ite ?v_138 23 (ite ?v_173 74 (ite ?v_142 97 (ite (= ?v_109 ?v_97) (ite (not ?v_115) 98 (ite ?v_115 95 ?v_109)) (ite (= ?v_109 ?v_116) (ite (not ?v_122) 94 (ite ?v_122 91 ?v_109)) (ite (= ?v_109 ?v_123) 95 (ite (= ?v_109 ?v_71) (ite (not ?v_125) 96 (ite ?v_125 76 ?v_109)) (ite ?v_162 101 (ite ?v_174 74 (ite (= ?v_109 ?v_126) (ite (not ?v_130) 102 (ite ?v_130 99 ?v_109)) (ite (= ?v_109 ?v_165) 99 (ite (not (= ?v_109 ?v_166)) ?v_109 (ite (not ?v_132) 100 (ite ?v_132 79 ?v_109))))))))))))))))) (let ((?v_172 (= ?v_141 ?v_83)) (?v_163 (ite ?v_143 9 (ite ?v_154 ?v_128 (+ 0 1 ?v_128))))) (let ((?v_146 (ite ?v_142 ?v_163 ?v_124))) (let ((?v_145 (<= ?v_146 ?v_100)) (?v_147 (<= 9 (+ ?v_146 0))) (?v_169 (ite ?v_143 0 (ite ?v_154 ?v_160 (ite (= ?v_128 ?v_156) 0 (ite (= ?v_128 ?v_157) 0 (ite (= ?v_128 ?v_158) 0 (ite (= ?v_128 ?v_159) 0 i578)))))))) (let ((?v_180 (ite ?v_142 ?v_169 (ite (not ?v_111) 0 ?v_160)))) (let ((?v_161 (= ?v_180 ?v_181)) (?v_167 (ite ?v_162 ?v_163 ?v_131))) (let ((?v_164 (<= ?v_167 ?v_100)) (?v_168 (<= 9 (+ ?v_167 0)))) (let ((?v_184 (not ?v_168)) (?v_204 (ite (not ?v_162) (ite (not ?v_127) 0 ?v_160) ?v_169))) (let ((?v_187 (= ?v_204 ?v_157))) (let ((?v_170 (ite (= ?v_141 ?v_133) (ite (not ?v_140) 24 (ite ?v_140 56 ?v_141)) (ite ?v_172 97 (ite (= ?v_141 ?v_97) (ite (not ?v_145) 98 (ite ?v_145 95 ?v_141)) (ite (= ?v_141 ?v_123) 95 (ite (= ?v_141 ?v_71) (ite (not ?v_147) 96 (ite ?v_147 76 ?v_141)) (ite (= ?v_141 ?v_148) 91 (ite (= ?v_141 ?v_84) (ite ?v_178 92 (ite ?v_153 69 ?v_141)) (ite (= ?v_141 ?v_86) 76 (ite (= ?v_141 ?v_87) (ite (not ?v_161) 77 (ite ?v_161 82 ?v_141)) (ite (= ?v_141 ?v_126) (ite (not ?v_164) 102 (ite ?v_164 99 ?v_141)) (ite (= ?v_141 ?v_165) 99 (ite (= ?v_141 ?v_166) (ite ?v_184 100 (ite ?v_168 79 ?v_141)) (ite (= ?v_141 ?v_185) 79 (ite (not (= ?v_141 ?v_186)) ?v_141 (ite ?v_187 82 ?v_141))))))))))))))))) (let ((?v_183 (= ?v_170 ?v_89)) (?v_190 (= ?v_170 ?v_171)) (?v_193 (= ?v_170 ?v_31)) (?v_210 (= ?v_170 ?v_70)) (?v_200 (ite ?v_173 9 (ite ?v_179 ?v_163 (+ 0 1 ?v_163))))) (let ((?v_176 (ite ?v_172 ?v_200 ?v_146))) (let ((?v_175 (<= ?v_176 ?v_100)) (?v_177 (<= 9 (+ ?v_176 0)))) (let ((?v_196 (not ?v_177)) (?v_205 (ite ?v_173 0 (ite ?v_179 ?v_169 (ite (= ?v_163 ?v_156) 0 (ite (= ?v_163 ?v_157) 0 (ite (= ?v_163 ?v_158) 0 (ite (= ?v_163 ?v_159) 0 i641)))))))) (let ((?v_216 (ite ?v_172 ?v_205 ?v_180))) (let ((?v_182 (= ?v_216 ?v_181))) (let ((?v_197 (not ?v_182)) (?v_199 (= ?v_170 ?v_103)) (?v_211 (= ?v_170 ?v_104))) (let ((?v_188 (ite ?v_190 26 (ite ?v_193 58 (ite ?v_210 74 (ite (= ?v_170 ?v_97) (ite (not ?v_175) 98 (ite ?v_175 95 ?v_170)) (ite (= ?v_170 ?v_123) 95 (ite (= ?v_170 ?v_71) (ite ?v_196 96 (ite ?v_177 76 ?v_170)) (ite (= ?v_170 ?v_84) (ite ?v_178 92 (ite ?v_153 69 ?v_170)) (ite (= ?v_170 ?v_86) 76 (ite (= ?v_170 ?v_87) (ite ?v_197 77 (ite ?v_182 82 ?v_170)) (ite ?v_183 69 (ite ?v_199 101 (ite ?v_211 74 (ite (= ?v_170 ?v_165) 99 (ite (= ?v_170 ?v_166) (ite ?v_184 100 (ite ?v_168 79 ?v_170)) (ite (= ?v_170 ?v_185) 79 (ite (not (= ?v_170 ?v_186)) ?v_170 (ite ?v_187 82 ?v_170))))))))))))))))))) (let ((?v_198 (= ?v_188 ?v_89)) (?v_192 (= (ite (not ?v_190) ?v_191 i762) ?v_3)) (?v_271 (ite (not ?v_193) ?v_194 i762))) (let ((?v_195 (= ?v_271 ?v_3)) (?v_237 (= ?v_188 ?v_70)) (?v_209 (= ?v_188 ?v_83)) (?v_219 (= ?v_188 ?v_103)) (?v_238 (= ?v_188 ?v_104)) (?v_202 (ite ?v_199 ?v_200 ?v_167))) (let ((?v_201 (<= ?v_202 ?v_100)) (?v_203 (<= 9 (+ ?v_202 0))) (?v_224 (ite (not ?v_199) ?v_204 ?v_205))) (let ((?v_207 (ite (= ?v_188 ?v_189) (ite (not ?v_192) 27 (ite ?v_192 28 ?v_188)) (ite (= ?v_188 ?v_33) (ite (not ?v_195) 59 (ite ?v_195 60 ?v_188)) (ite ?v_237 74 (ite ?v_209 97 (ite (= ?v_188 ?v_123) 95 (ite (= ?v_188 ?v_71) (ite ?v_196 96 (ite ?v_177 76 ?v_188)) (ite (= ?v_188 ?v_86) 76 (ite (= ?v_188 ?v_87) (ite ?v_197 77 (ite ?v_182 82 ?v_188)) (ite ?v_198 69 (ite ?v_219 101 (ite ?v_238 74 (ite (= ?v_188 ?v_126) (ite (not ?v_201) 102 (ite ?v_201 99 ?v_188)) (ite (= ?v_188 ?v_166) (ite (not ?v_203) 100 (ite ?v_203 79 ?v_188)) (ite (= ?v_188 ?v_185) 79 (ite (not (= ?v_188 ?v_186)) ?v_188 (ite (= ?v_224 ?v_157) 82 ?v_188)))))))))))))))))) (let ((?v_227 (= ?v_207 ?v_206)) (?v_228 (= ?v_207 ?v_208)) (?v_232 (= ?v_207 ?v_44)) (?v_233 (= ?v_207 ?v_45)) (?v_255 (= ?v_207 ?v_70)) (?v_236 (= ?v_207 ?v_83)) (?v_215 (not ?v_209)) (?v_217 (not ?v_211))) (let ((?v_220 (ite ?v_210 9 (ite ?v_217 ?v_200 (+ 0 1 ?v_200))))) (let ((?v_213 (ite ?v_215 ?v_176 ?v_220))) (let ((?v_212 (<= ?v_213 ?v_100)) (?v_214 (<= 9 (+ ?v_213 0))) (?v_225 (ite ?v_210 0 (ite ?v_217 ?v_205 (ite (= ?v_200 ?v_156) 0 (ite (= ?v_200 ?v_157) 0 (ite (= ?v_200 ?v_158) 0 (ite (= ?v_200 ?v_159) 0 i762)))))))) (let ((?v_243 (ite ?v_215 ?v_216 ?v_225))) (let ((?v_218 (= ?v_243 ?v_181)) (?v_245 (= ?v_207 ?v_103)) (?v_256 (= ?v_207 ?v_104)) (?v_222 (ite ?v_219 ?v_220 ?v_202))) (let ((?v_221 (<= ?v_222 ?v_100)) (?v_223 (<= 9 (+ ?v_222 0))) (?v_250 (ite (not ?v_219) ?v_224 ?v_225))) (let ((?v_231 (ite ?v_227 30 (ite ?v_228 30 (ite ?v_232 62 (ite ?v_233 62 (ite ?v_255 74 (ite ?v_236 97 (ite (= ?v_207 ?v_97) (ite (not ?v_212) 98 (ite ?v_212 95 ?v_207)) (ite (= ?v_207 ?v_71) (ite (not ?v_214) 96 (ite ?v_214 76 ?v_207)) (ite (= ?v_207 ?v_86) 76 (ite (= ?v_207 ?v_87) (ite (not ?v_218) 77 (ite ?v_218 82 ?v_207)) (ite ?v_245 101 (ite ?v_256 74 (ite (= ?v_207 ?v_126) (ite (not ?v_221) 102 (ite ?v_221 99 ?v_207)) (ite (= ?v_207 ?v_165) 99 (ite (= ?v_207 ?v_166) (ite (not ?v_223) 100 (ite ?v_223 79 ?v_207)) (ite (= ?v_207 ?v_185) 79 (ite (not (= ?v_207 ?v_186)) ?v_207 (ite (= ?v_250 ?v_157) 82 ?v_207))))))))))))))))))) (?v_230 (<= (ite ?v_227 i890 (ite (not ?v_228) ?v_229 i890)) ?v_3)) (?v_317 (ite ?v_232 i890 (ite (not ?v_233) ?v_234 i890)))) (let ((?v_235 (<= ?v_317 ?v_3)) (?v_254 (= ?v_231 ?v_83)) (?v_242 (not ?v_238))) (let ((?v_246 (ite ?v_237 9 (ite ?v_242 ?v_220 (+ 0 1 ?v_220))))) (let ((?v_240 (ite ?v_236 ?v_246 ?v_213))) (let ((?v_239 (<= ?v_240 ?v_100)) (?v_241 (<= 9 (+ ?v_240 0))) (?v_251 (ite ?v_237 0 (ite ?v_242 ?v_225 (ite (= ?v_220 ?v_156) 0 (ite (= ?v_220 ?v_157) 0 (ite (= ?v_220 ?v_158) 0 (ite (= ?v_220 ?v_159) 0 i826)))))))) (let ((?v_261 (ite ?v_236 ?v_251 ?v_243))) (let ((?v_244 (= ?v_261 ?v_181)) (?v_263 (= ?v_231 ?v_103)) (?v_278 (= ?v_231 ?v_104)) (?v_248 (ite ?v_245 ?v_246 ?v_222))) (let ((?v_247 (<= ?v_248 ?v_100)) (?v_249 (<= 9 (+ ?v_248 0))) (?v_268 (ite (not ?v_245) ?v_250 ?v_251))) (let ((?v_252 (ite (= ?v_231 ?v_226) (ite ?v_230 56 (ite (not ?v_230) 46 ?v_231)) (ite (= ?v_231 ?v_54) (ite (not ?v_235) 63 (ite ?v_235 69 ?v_231)) (ite ?v_254 97 (ite (= ?v_231 ?v_97) (ite (not ?v_239) 98 (ite ?v_239 95 ?v_231)) (ite (= ?v_231 ?v_123) 95 (ite (= ?v_231 ?v_71) (ite (not ?v_241) 96 (ite ?v_241 76 ?v_231)) (ite (= ?v_231 ?v_86) 76 (ite (= ?v_231 ?v_87) (ite (not ?v_244) 77 (ite ?v_244 82 ?v_231)) (ite ?v_263 101 (ite ?v_278 74 (ite (= ?v_231 ?v_126) (ite (not ?v_247) 102 (ite ?v_247 99 ?v_231)) (ite (= ?v_231 ?v_165) 99 (ite (= ?v_231 ?v_166) (ite (not ?v_249) 100 (ite ?v_249 79 ?v_231)) (ite (= ?v_231 ?v_185) 79 (ite (not (= ?v_231 ?v_186)) ?v_231 (ite (= ?v_268 ?v_157) 82 ?v_231)))))))))))))))))) (let ((?v_270 (= ?v_252 ?v_31)) (?v_274 (= ?v_252 ?v_69)) (?v_281 (= ?v_252 ?v_70)) (?v_277 (= ?v_252 ?v_83)) (?v_282 (= ?v_252 ?v_253)) (?v_260 (not ?v_256))) (let ((?v_264 (ite ?v_255 9 (ite ?v_260 ?v_246 (+ 0 1 ?v_246))))) (let ((?v_258 (ite ?v_254 ?v_264 ?v_240))) (let ((?v_257 (<= ?v_258 ?v_100)) (?v_259 (<= 9 (+ ?v_258 0))) (?v_269 (ite ?v_255 0 (ite ?v_260 ?v_251 (ite (= ?v_246 ?v_156) 0 (ite (= ?v_246 ?v_157) 0 (ite (= ?v_246 ?v_158) 0 (ite (= ?v_246 ?v_159) 0 i890)))))))) (let ((?v_288 (ite ?v_254 ?v_269 ?v_261))) (let ((?v_262 (= ?v_288 ?v_181)) (?v_290 (= ?v_252 ?v_103)) (?v_283 (= ?v_252 ?v_104)) (?v_266 (ite ?v_263 ?v_264 ?v_248))) (let ((?v_265 (<= ?v_266 ?v_100)) (?v_267 (<= 9 (+ ?v_266 0))) (?v_294 (ite (not ?v_263) ?v_268 ?v_269))) (let ((?v_273 (ite ?v_270 58 (ite ?v_274 65 (ite ?v_281 74 (ite ?v_277 97 (ite ?v_282 48 (ite (= ?v_252 ?v_97) (ite (not ?v_257) 98 (ite ?v_257 95 ?v_252)) (ite (= ?v_252 ?v_123) 95 (ite (= ?v_252 ?v_71) (ite (not ?v_259) 96 (ite ?v_259 76 ?v_252)) (ite (= ?v_252 ?v_86) 76 (ite (= ?v_252 ?v_87) (ite (not ?v_262) 77 (ite ?v_262 82 ?v_252)) (ite ?v_290 101 (ite ?v_283 74 (ite (= ?v_252 ?v_126) (ite (not ?v_265) 102 (ite ?v_265 99 ?v_252)) (ite (= ?v_252 ?v_165) 99 (ite (= ?v_252 ?v_166) (ite (not ?v_267) 100 (ite ?v_267 79 ?v_252)) (ite (= ?v_252 ?v_185) 79 (ite (not (= ?v_252 ?v_186)) ?v_252 (ite (= ?v_294 ?v_157) 82 ?v_252))))))))))))))))))) (?v_272 (= (ite (not ?v_270) ?v_271 i1022) ?v_3)) (?v_363 (ite (not ?v_274) ?v_275 i1022))) (let ((?v_276 (= ?v_363 ?v_3)) (?v_297 (= ?v_273 ?v_83)) (?v_287 (not ?v_278))) (let ((?v_284 (ite ?v_287 ?v_264 (+ 0 1 ?v_264)))) (let ((?v_285 (ite ?v_277 ?v_284 ?v_258))) (let ((?v_279 (<= ?v_285 ?v_100)) (?v_302 (not ?v_283))) (let ((?v_298 (ite ?v_281 9 (ite ?v_282 i1022 (ite ?v_302 ?v_284 (+ 0 1 ?v_284))))) (?v_286 (<= 9 (+ ?v_285 0))) (?v_295 (ite ?v_287 ?v_269 (ite (= ?v_264 ?v_156) 0 (ite (= ?v_264 ?v_157) 0 (ite (= ?v_264 ?v_158) 0 (ite (= ?v_264 ?v_159) 0 i960))))))) (let ((?v_303 (ite ?v_277 ?v_295 ?v_288))) (let ((?v_289 (= ?v_303 ?v_181)) (?v_305 (= ?v_273 ?v_103)) (?v_320 (= ?v_273 ?v_104)) (?v_292 (ite ?v_290 ?v_284 ?v_266))) (let ((?v_291 (<= ?v_292 ?v_100)) (?v_293 (<= 9 (+ ?v_292 0))) (?v_309 (ite (not ?v_290) ?v_294 ?v_295))) (let ((?v_296 (ite (= ?v_273 ?v_33) (ite (not ?v_272) 59 (ite ?v_272 60 ?v_273)) (ite (= ?v_273 ?v_79) (ite (not ?v_276) 66 (ite ?v_276 67 ?v_273)) (ite ?v_297 97 (ite (= ?v_273 ?v_97) (ite (not ?v_279) 98 (ite ?v_279 95 ?v_273)) (ite (= ?v_273 ?v_280) (ite (not (<= ?v_298 ?v_3)) 12 ?v_273) (ite (= ?v_273 ?v_123) 95 (ite (= ?v_273 ?v_71) (ite (not ?v_286) 96 (ite ?v_286 76 ?v_273)) (ite (= ?v_273 ?v_86) 76 (ite (= ?v_273 ?v_87) (ite (not ?v_289) 77 (ite ?v_289 82 ?v_273)) (ite ?v_305 101 (ite ?v_320 74 (ite (= ?v_273 ?v_126) (ite (not ?v_291) 102 (ite ?v_291 99 ?v_273)) (ite (= ?v_273 ?v_165) 99 (ite (= ?v_273 ?v_166) (ite (not ?v_293) 100 (ite ?v_293 79 ?v_273)) (ite (= ?v_273 ?v_185) 79 (ite (not (= ?v_273 ?v_186)) ?v_273 (ite (= ?v_309 ?v_157) 82 ?v_273))))))))))))))))))) (let ((?v_311 (= ?v_296 ?v_42)) (?v_315 (= ?v_296 ?v_44)) (?v_316 (= ?v_296 ?v_45)) (?v_319 (= ?v_296 ?v_83)) (?v_322 (= ?v_296 ?v_95)) (?v_323 (= ?v_296 ?v_96)) (?v_300 (ite ?v_297 ?v_298 ?v_285))) (let ((?v_299 (<= ?v_300 ?v_100)) (?v_301 (<= 9 (+ ?v_300 0))) (?v_310 (ite ?v_281 0 (ite ?v_302 ?v_295 (ite (= ?v_284 ?v_156) 0 (ite (= ?v_284 ?v_157) 0 (ite (= ?v_284 ?v_158) 0 (ite (= ?v_284 ?v_159) 0 i1022)))))))) (let ((?v_331 (ite ?v_297 ?v_310 ?v_303))) (let ((?v_304 (= ?v_331 ?v_181)) (?v_333 (= ?v_296 ?v_103)) (?v_342 (= ?v_296 ?v_104)) (?v_307 (ite ?v_305 ?v_298 ?v_292))) (let ((?v_306 (<= ?v_307 ?v_100)) (?v_308 (<= 9 (+ ?v_307 0))) (?v_338 (ite (not ?v_305) ?v_309 ?v_310))) (let ((?v_314 (ite ?v_311 14 (ite ?v_315 62 (ite ?v_316 62 (ite ?v_319 97 (ite ?v_322 93 (ite ?v_323 93 (ite (= ?v_296 ?v_97) (ite (not ?v_299) 98 (ite ?v_299 95 ?v_296)) (ite (= ?v_296 ?v_123) 95 (ite (= ?v_296 ?v_71) (ite (not ?v_301) 96 (ite ?v_301 76 ?v_296)) (ite (= ?v_296 ?v_86) 76 (ite (= ?v_296 ?v_87) (ite (not ?v_304) 77 (ite ?v_304 82 ?v_296)) (ite ?v_333 101 (ite ?v_342 74 (ite (= ?v_296 ?v_126) (ite (not ?v_306) 102 (ite ?v_306 99 ?v_296)) (ite (= ?v_296 ?v_165) 99 (ite (= ?v_296 ?v_166) (ite (not ?v_308) 100 (ite ?v_308 79 ?v_296)) (ite (= ?v_296 ?v_185) 79 (ite (not (= ?v_296 ?v_186)) ?v_296 (ite (= ?v_338 ?v_157) 82 ?v_296)))))))))))))))))))) (?v_313 (= (ite (not ?v_311) ?v_312 i1154) ?v_3)) (?v_318 (<= (ite ?v_315 i1154 (ite (not ?v_316) ?v_317 i1154)) ?v_3))) (let ((?v_341 (= ?v_314 ?v_83)) (?v_330 (not ?v_320))) (let ((?v_334 (ite ?v_330 ?v_298 (+ 0 1 ?v_298)))) (let ((?v_328 (ite ?v_319 ?v_334 ?v_300))) (let ((?v_321 (<= ?v_328 ?v_100)) (?v_324 (not ?v_323))) (let ((?v_349 (ite ?v_322 i1154 (ite ?v_324 ?v_152 i1154))) (?v_411 (ite ?v_322 ?v_326 (ite ?v_324 ?v_325 ?v_326)))) (let ((?v_327 (<= ?v_349 (+ ?v_411 0))) (?v_329 (<= 9 (+ ?v_328 0))) (?v_339 (ite ?v_330 ?v_310 (ite (= ?v_298 ?v_156) 0 (ite (= ?v_298 ?v_157) 0 (ite (= ?v_298 ?v_158) 0 (ite (= ?v_298 ?v_159) 0 i1091))))))) (let ((?v_352 (ite ?v_319 ?v_339 ?v_331))) (let ((?v_332 (= ?v_352 ?v_181)) (?v_354 (= ?v_314 ?v_103)) (?v_366 (= ?v_314 ?v_104)) (?v_336 (ite ?v_333 ?v_334 ?v_307))) (let ((?v_335 (<= ?v_336 ?v_100)) (?v_337 (<= 9 (+ ?v_336 0))) (?v_359 (ite (not ?v_333) ?v_338 ?v_339))) (let ((?v_340 (ite (= ?v_314 ?v_49) (ite (not ?v_313) 15 (ite ?v_313 16 ?v_314)) (ite (= ?v_314 ?v_54) (ite (not ?v_318) 63 (ite ?v_318 69 ?v_314)) (ite ?v_341 97 (ite (= ?v_314 ?v_97) (ite (not ?v_321) 98 (ite ?v_321 95 ?v_314)) (ite (= ?v_314 ?v_116) (ite (not ?v_327) 94 (ite ?v_327 91 ?v_314)) (ite (= ?v_314 ?v_123) 95 (ite (= ?v_314 ?v_71) (ite (not ?v_329) 96 (ite ?v_329 76 ?v_314)) (ite (= ?v_314 ?v_86) 76 (ite (= ?v_314 ?v_87) (ite (not ?v_332) 77 (ite ?v_332 82 ?v_314)) (ite ?v_354 101 (ite ?v_366 74 (ite (= ?v_314 ?v_126) (ite (not ?v_335) 102 (ite ?v_335 99 ?v_314)) (ite (= ?v_314 ?v_165) 99 (ite (= ?v_314 ?v_166) (ite (not ?v_337) 100 (ite ?v_337 79 ?v_314)) (ite (= ?v_314 ?v_185) 79 (ite (not (= ?v_314 ?v_186)) ?v_314 (ite (= ?v_359 ?v_157) 82 ?v_314))))))))))))))))))) (let ((?v_426 (= ?v_340 ?v_66)) (?v_427 (= ?v_340 ?v_68)) (?v_362 (= ?v_340 ?v_69)) (?v_387 (= ?v_340 ?v_70)) (?v_365 (= ?v_340 ?v_83)) (?v_351 (not ?v_342))) (let ((?v_355 (ite ?v_351 ?v_334 (+ 0 1 ?v_334)))) (let ((?v_344 (ite ?v_341 ?v_355 ?v_328))) (let ((?v_343 (<= ?v_344 ?v_100)) (?v_345 (<= 9 (+ ?v_344 0))) (?v_441 (ite ?v_322 ?v_348 (ite ?v_324 ?v_347 ?v_348)))) (let ((?v_350 (<= ?v_441 (+ ?v_349 0)))) (let ((?v_370 (not ?v_350)) (?v_360 (ite ?v_351 ?v_339 (ite (= ?v_334 ?v_156) 0 (ite (= ?v_334 ?v_157) 0 (ite (= ?v_334 ?v_158) 0 (ite (= ?v_334 ?v_159) 0 i1154))))))) (let ((?v_372 (ite ?v_341 ?v_360 ?v_352))) (let ((?v_353 (= ?v_372 ?v_181)) (?v_375 (= ?v_340 ?v_103)) (?v_388 (= ?v_340 ?v_104)) (?v_357 (ite ?v_354 ?v_355 ?v_336))) (let ((?v_356 (<= ?v_357 ?v_100)) (?v_358 (<= 9 (+ ?v_357 0))) (?v_380 (ite (not ?v_354) ?v_359 ?v_360))) (let ((?v_361 (ite ?v_426 17 (ite ?v_427 17 (ite ?v_362 65 (ite ?v_387 74 (ite ?v_365 97 (ite (= ?v_340 ?v_97) (ite (not ?v_343) 98 (ite ?v_343 95 ?v_340)) (ite (= ?v_340 ?v_123) 95 (ite (= ?v_340 ?v_71) (ite (not ?v_345) 96 (ite ?v_345 76 ?v_340)) (ite (= ?v_340 ?v_148) 91 (ite (= ?v_340 ?v_84) (ite ?v_370 92 (ite ?v_350 69 ?v_340)) (ite (= ?v_340 ?v_86) 76 (ite (= ?v_340 ?v_87) (ite (not ?v_353) 77 (ite ?v_353 82 ?v_340)) (ite ?v_375 101 (ite ?v_388 74 (ite (= ?v_340 ?v_126) (ite (not ?v_356) 102 (ite ?v_356 99 ?v_340)) (ite (= ?v_340 ?v_165) 99 (ite (= ?v_340 ?v_166) (ite (not ?v_358) 100 (ite ?v_358 79 ?v_340)) (ite (= ?v_340 ?v_185) 79 (ite (not (= ?v_340 ?v_186)) ?v_340 (ite (= ?v_380 ?v_157) 82 ?v_340)))))))))))))))))))))) (let ((?v_374 (= ?v_361 ?v_89)) (?v_383 (= ?v_361 ?v_78)) (?v_405 (= ?v_361 ?v_70)) (?v_364 (= (ite (not ?v_362) ?v_363 i1291) ?v_3)) (?v_386 (= ?v_361 ?v_83)) (?v_371 (not ?v_366))) (let ((?v_376 (ite ?v_371 ?v_355 (+ 0 1 ?v_355)))) (let ((?v_368 (ite ?v_365 ?v_376 ?v_344))) (let ((?v_367 (<= ?v_368 ?v_100)) (?v_369 (<= 9 (+ ?v_368 0))) (?v_381 (ite ?v_371 ?v_360 (ite (= ?v_355 ?v_156) 0 (ite (= ?v_355 ?v_157) 0 (ite (= ?v_355 ?v_158) 0 (ite (= ?v_355 ?v_159) 0 i1228))))))) (let ((?v_393 (ite ?v_365 ?v_381 ?v_372))) (let ((?v_373 (= ?v_393 ?v_181)) (?v_396 (= ?v_361 ?v_103)) (?v_406 (= ?v_361 ?v_104)) (?v_378 (ite ?v_375 ?v_376 ?v_357))) (let ((?v_377 (<= ?v_378 ?v_100)) (?v_379 (<= 9 (+ ?v_378 0))) (?v_401 (ite (not ?v_375) ?v_380 ?v_381))) (let ((?v_382 (ite ?v_383 19 (ite ?v_405 74 (ite (= ?v_361 ?v_79) (ite (not ?v_364) 66 (ite ?v_364 67 ?v_361)) (ite ?v_386 97 (ite (= ?v_361 ?v_97) (ite (not ?v_367) 98 (ite ?v_367 95 ?v_361)) (ite (= ?v_361 ?v_123) 95 (ite (= ?v_361 ?v_71) (ite (not ?v_369) 96 (ite ?v_369 76 ?v_361)) (ite (= ?v_361 ?v_84) (ite ?v_370 92 (ite ?v_350 69 ?v_361)) (ite (= ?v_361 ?v_86) 76 (ite (= ?v_361 ?v_87) (ite (not ?v_373) 77 (ite ?v_373 82 ?v_361)) (ite ?v_374 69 (ite ?v_396 101 (ite ?v_406 74 (ite (= ?v_361 ?v_126) (ite (not ?v_377) 102 (ite ?v_377 99 ?v_361)) (ite (= ?v_361 ?v_165) 99 (ite (= ?v_361 ?v_166) (ite (not ?v_379) 100 (ite ?v_379 79 ?v_361)) (ite (= ?v_361 ?v_185) 79 (ite (not (= ?v_361 ?v_186)) ?v_361 (ite (= ?v_401 ?v_157) 82 ?v_361))))))))))))))))))))) (let ((?v_395 (= ?v_382 ?v_89)) (?v_385 (= (ite (not ?v_383) ?v_384 i1362) ?v_3)) (?v_435 (= ?v_382 ?v_70)) (?v_404 (= ?v_382 ?v_83)) (?v_408 (= ?v_382 ?v_95)) (?v_409 (= ?v_382 ?v_96)) (?v_392 (not ?v_388))) (let ((?v_397 (ite ?v_387 9 (ite ?v_392 ?v_376 (+ 0 1 ?v_376))))) (let ((?v_390 (ite ?v_386 ?v_397 ?v_368))) (let ((?v_389 (<= ?v_390 ?v_100)) (?v_391 (<= 9 (+ ?v_390 0))) (?v_402 (ite ?v_387 0 (ite ?v_392 ?v_381 (ite (= ?v_376 ?v_156) 0 (ite (= ?v_376 ?v_157) 0 (ite (= ?v_376 ?v_158) 0 (ite (= ?v_376 ?v_159) 0 i1291)))))))) (let ((?v_417 (ite ?v_386 ?v_402 ?v_393))) (let ((?v_394 (= ?v_417 ?v_181)) (?v_419 (= ?v_382 ?v_103)) (?v_436 (= ?v_382 ?v_104)) (?v_399 (ite ?v_396 ?v_397 ?v_378))) (let ((?v_398 (<= ?v_399 ?v_100)) (?v_400 (<= 9 (+ ?v_399 0))) (?v_424 (ite (not ?v_396) ?v_401 ?v_402))) (let ((?v_403 (ite (= ?v_382 ?v_91) (ite (not ?v_385) 20 (ite ?v_385 21 ?v_382)) (ite ?v_435 74 (ite ?v_404 97 (ite ?v_408 93 (ite ?v_409 93 (ite (= ?v_382 ?v_97) (ite (not ?v_389) 98 (ite ?v_389 95 ?v_382)) (ite (= ?v_382 ?v_123) 95 (ite (= ?v_382 ?v_71) (ite (not ?v_391) 96 (ite ?v_391 76 ?v_382)) (ite (= ?v_382 ?v_86) 76 (ite (= ?v_382 ?v_87) (ite (not ?v_394) 77 (ite ?v_394 82 ?v_382)) (ite ?v_395 69 (ite ?v_419 101 (ite ?v_436 74 (ite (= ?v_382 ?v_126) (ite (not ?v_398) 102 (ite ?v_398 99 ?v_382)) (ite (= ?v_382 ?v_165) 99 (ite (= ?v_382 ?v_166) (ite (not ?v_400) 100 (ite ?v_400 79 ?v_382)) (ite (= ?v_382 ?v_185) 79 (ite (not (= ?v_382 ?v_186)) ?v_382 (ite (= ?v_424 ?v_157) 82 ?v_382))))))))))))))))))))) (let ((?v_429 (= ?v_403 ?v_108)) (?v_430 (= ?v_403 ?v_110)) (?v_457 (= ?v_403 ?v_70)) (?v_434 (= ?v_403 ?v_83)) (?v_416 (not ?v_406))) (let ((?v_420 (ite ?v_405 9 (ite ?v_416 ?v_397 (+ 0 1 ?v_397))))) (let ((?v_414 (ite ?v_404 ?v_420 ?v_390))) (let ((?v_407 (<= ?v_414 ?v_100)) (?v_410 (not ?v_409))) (let ((?v_443 (ite ?v_408 i1430 (ite ?v_410 ?v_349 i1430)))) (let ((?v_413 (<= ?v_443 (+ (ite ?v_408 ?v_412 (ite ?v_410 ?v_411 ?v_412)) 0))) (?v_415 (<= 9 (+ ?v_414 0))) (?v_425 (ite ?v_405 0 (ite ?v_416 ?v_402 (ite (= ?v_397 ?v_156) 0 (ite (= ?v_397 ?v_157) 0 (ite (= ?v_397 ?v_158) 0 (ite (= ?v_397 ?v_159) 0 i1362)))))))) (let ((?v_446 (ite ?v_404 ?v_425 ?v_417))) (let ((?v_418 (= ?v_446 ?v_181)) (?v_448 (= ?v_403 ?v_103)) (?v_458 (= ?v_403 ?v_104)) (?v_422 (ite ?v_419 ?v_420 ?v_399))) (let ((?v_421 (<= ?v_422 ?v_100)) (?v_423 (<= 9 (+ ?v_422 0))) (?v_453 (ite (not ?v_419) ?v_424 ?v_425))) (let ((?v_433 (ite ?v_429 23 (ite ?v_430 23 (ite ?v_457 74 (ite ?v_434 97 (ite (= ?v_403 ?v_97) (ite (not ?v_407) 98 (ite ?v_407 95 ?v_403)) (ite (= ?v_403 ?v_116) (ite (not ?v_413) 94 (ite ?v_413 91 ?v_403)) (ite (= ?v_403 ?v_123) 95 (ite (= ?v_403 ?v_71) (ite (not ?v_415) 96 (ite ?v_415 76 ?v_403)) (ite (= ?v_403 ?v_86) 76 (ite (= ?v_403 ?v_87) (ite (not ?v_418) 77 (ite ?v_418 82 ?v_403)) (ite ?v_448 101 (ite ?v_458 74 (ite (= ?v_403 ?v_126) (ite (not ?v_421) 102 (ite ?v_421 99 ?v_403)) (ite (= ?v_403 ?v_165) 99 (ite (= ?v_403 ?v_166) (ite (not ?v_423) 100 (ite ?v_423 79 ?v_403)) (ite (= ?v_403 ?v_185) 79 (ite (not (= ?v_403 ?v_186)) ?v_403 (ite (= ?v_453 ?v_157) 82 ?v_403))))))))))))))))))) (?v_432 (<= (ite ?v_426 i1291 (ite (not ?v_427) ?v_428 i1291)) (+ (ite ?v_429 i1503 (ite (not ?v_430) ?v_431 i1503)) 0)))) (let ((?v_456 (= ?v_433 ?v_83)) (?v_445 (not ?v_436))) (let ((?v_449 (ite ?v_435 9 (ite ?v_445 ?v_420 (+ 0 1 ?v_420))))) (let ((?v_438 (ite ?v_434 ?v_449 ?v_414))) (let ((?v_437 (<= ?v_438 ?v_100)) (?v_439 (<= 9 (+ ?v_438 0))) (?v_444 (<= (ite ?v_408 ?v_442 (ite ?v_410 ?v_441 ?v_442)) (+ ?v_443 0)))) (let ((?v_462 (not ?v_444)) (?v_454 (ite ?v_435 0 (ite ?v_445 ?v_425 (ite (= ?v_420 ?v_156) 0 (ite (= ?v_420 ?v_157) 0 (ite (= ?v_420 ?v_158) 0 (ite (= ?v_420 ?v_159) 0 i1430)))))))) (let ((?v_464 (ite ?v_434 ?v_454 ?v_446))) (let ((?v_447 (= ?v_464 ?v_181)) (?v_467 (= ?v_433 ?v_103)) (?v_451 (ite ?v_448 ?v_449 ?v_422))) (let ((?v_450 (<= ?v_451 ?v_100)) (?v_452 (<= 9 (+ ?v_451 0))) (?v_472 (ite (not ?v_448) ?v_453 ?v_454))) (let ((?v_455 (ite (= ?v_433 ?v_133) (ite (not ?v_432) 24 (ite ?v_432 56 ?v_433)) (ite ?v_456 97 (ite (= ?v_433 ?v_97) (ite (not ?v_437) 98 (ite ?v_437 95 ?v_433)) (ite (= ?v_433 ?v_123) 95 (ite (= ?v_433 ?v_71) (ite (not ?v_439) 96 (ite ?v_439 76 ?v_433)) (ite (= ?v_433 ?v_148) 91 (ite (= ?v_433 ?v_84) (ite ?v_462 92 (ite ?v_444 69 ?v_433)) (ite (= ?v_433 ?v_86) 76 (ite (= ?v_433 ?v_87) (ite (not ?v_447) 77 (ite ?v_447 82 ?v_433)) (ite ?v_467 101 (ite (= ?v_433 ?v_104) 74 (ite (= ?v_433 ?v_126) (ite (not ?v_450) 102 (ite ?v_450 99 ?v_433)) (ite (= ?v_433 ?v_165) 99 (ite (= ?v_433 ?v_166) (ite (not ?v_452) 100 (ite ?v_452 79 ?v_433)) (ite (= ?v_433 ?v_185) 79 (ite (not (= ?v_433 ?v_186)) ?v_433 (ite (= ?v_472 ?v_157) 82 ?v_433))))))))))))))))))) (let ((?v_466 (= ?v_455 ?v_89)) (?v_463 (not ?v_458))) (let ((?v_468 (ite ?v_457 9 (ite ?v_463 ?v_449 (+ 0 1 ?v_449))))) (let ((?v_460 (ite ?v_456 ?v_468 ?v_438))) (let ((?v_459 (<= ?v_460 ?v_100)) (?v_461 (<= 9 (+ ?v_460 0))) (?v_473 (ite ?v_457 0 (ite ?v_463 ?v_454 (ite (= ?v_449 ?v_156) 0 (ite (= ?v_449 ?v_157) 0 (ite (= ?v_449 ?v_158) 0 (ite (= ?v_449 ?v_159) 0 i1503)))))))) (let ((?v_465 (= (ite ?v_456 ?v_473 ?v_464) ?v_181)) (?v_470 (ite ?v_467 ?v_468 ?v_451))) (let ((?v_469 (<= ?v_470 ?v_100)) (?v_471 (<= 9 (+ ?v_470 0)))) (and (and (and (and (and (and (and (and true (not ?v_88)) (not ?v_102)) (not ?v_183)) (not ?v_198)) (not ?v_374)) (not ?v_395)) (not ?v_466)) (= (ite (= ?v_455 ?v_171) 26 (ite (= ?v_455 ?v_31) 58 (ite (= ?v_455 ?v_70) 74 (ite (= ?v_455 ?v_83) 97 (ite (= ?v_455 ?v_97) (ite (not ?v_459) 98 (ite ?v_459 95 ?v_455)) (ite (= ?v_455 ?v_123) 95 (ite (= ?v_455 ?v_71) (ite (not ?v_461) 96 (ite ?v_461 76 ?v_455)) (ite (= ?v_455 ?v_84) (ite ?v_462 92 (ite ?v_444 69 ?v_455)) (ite (= ?v_455 ?v_86) 76 (ite (= ?v_455 ?v_87) (ite (not ?v_465) 77 (ite ?v_465 82 ?v_455)) (ite ?v_466 69 (ite (= ?v_455 ?v_103) 101 (ite (= ?v_455 ?v_104) 74 (ite (= ?v_455 ?v_126) (ite (not ?v_469) 102 (ite ?v_469 99 ?v_455)) (ite (= ?v_455 ?v_165) 99 (ite (= ?v_455 ?v_166) (ite (not ?v_471) 100 (ite ?v_471 79 ?v_455)) (ite (= ?v_455 ?v_185) 79 (ite (not (= ?v_455 ?v_186)) ?v_455 (ite (= (ite (not ?v_467) ?v_472 ?v_473) ?v_157) 82 ?v_455))))))))))))))))))) ?v_89)))))))))))))))))))))))))))))))))))))))))))))))))))))))))))))))))))))))))))))))))))))))))))))))))))))))))))))))))))))))))))))))))))))))))))))))))))))))))))))))))))))))))))))))))))))))))))))))))))))
(check-sat)
(exit)
